/* Objective function */
max: ;

/* Constraints */
R1: +x28 <= 0;
R2: +x2 <= 0;
R3: +x1 <= 0;
R4: +x1 <= 0;
R5: +x1 <= 0;
R6: +x3 <= 0;
R7: +x5 <= 0;
R8: +x6 <= 0;
R9: +x6 <= 0;
R10: +x7 <= 0;
+x29 +x30 <= 0;
R12: +x7 <= 0;
R13: +x8 <= 0;
R14: +x9 <= 0;
R15: +x3 <= 0;
R16: +x3 <= 0;
R17: +x2 <= 0;
R18: +x31 <= 0;
+x32 +x34 <= 0;
+x36 +x38 +x40 <= 0;
R21: +x33 <= 0;
R22: +x35 <= 0;
R23: +x37 <= 0;
R24: +x39 <= 0;
R25: +x41 <= 0;
R26: +x42 <= 0;
R27: +x43 <= 0;
+x44 +x46 <= 0;
R29: +x45 <= 0;
R30: +x47 <= 0;
+x48 +x50 +x52 +x54 <= 0;
+x10 +x12 +x56 +x58 +x60 <= 0;
R33: +x49 <= 0;
R34: +x51 <= 0;
R35: +x53 <= 0;
R36: +x55 <= 0;
R37: +x57 <= 0;
R38: +x11 <= 0;
R39: +x59 <= 0;
R40: +x13 <= 0;
+x4 +x15 +x18 <= 0;
R42: +x61 <= 0;
R43: +x14 <= 0;
R44: +x14 <= 0;
0 x1 <= 1;
R46: +x17 <= 0;
R47: +x17 <= 0;
R48: +x16 <= 0;
R49: +x19 <= 0;
R50: +x19 <= 0;
R51: +x20 <= 0;
0 x1 <= 0;
+x4 +x10 +x12 <= 0;
R54: +x16 <= 0;
0 x1 <= 0;
R56: +x5 <= 0;
R57: +x1 <= 0;
R58: +x2 <= 0;
R59: +x8 <= 0;
R60: +x20 <= 0;
R61: +x13 <= 0;
+x4 +x15 +x18 <= 0;
R63: +x9 <= 0;
R64: +x11 <= 0;
R65: +x21 <= 0;
R66: +x21 <= 0;
R67: +x22 <= 0;
R68: +x22 <= 0;
R69: +x23 <= 0;
R70: +x23 <= 0;
R71: +x24 <= 0;
R72: +x24 <= 0;
R73: +x25 <= 0;
R74: +x25 <= 0;
R75: +x26 <= 0;
R76: +x26 <= 0;
R77: +x27 <= 0;
R78: +x27 <= 0;
R79: +x28 >= 0;
R80: +x2 >= 0;
R81: +x2 >= 0;
R82: +x2 >= 0;
R83: +x1 >= 0;
R84: +x1 >= 0;
R85: +x5 >= 0;
R86: +x5 >= 0;
R87: +x6 >= 0;
R88: +x6 >= 0;
+x8 +x9 >= 0;
R90: +x29 >= 0;
R91: +x30 >= 0;
R92: +x7 >= 0;
R93: +x7 >= 0;
R94: +x3 >= 0;
R95: +x3 >= 0;
R96: +x31 >= 0;
+x33 +x35 >= 0;
R98: +x32 >= 0;
R99: +x34 >= 0;
R100: +x36 >= 0;
R101: +x38 >= 0;
R102: +x40 >= 0;
+x37 +x39 +x41 >= 0;
R104: +x42 >= 0;
R105: +x43 >= 0;
R106: +x44 >= 0;
R107: +x46 >= 0;
+x23 +x47 >= 0;
+x49 +x51 +x53 +x55 >= 0;
R110: +x48 >= 0;
R111: +x50 >= 0;
R112: +x52 >= 0;
R113: +x54 >= 0;
R114: +x56 >= 0;
R115: +x10 >= 0;
R116: +x58 >= 0;
R117: +x12 >= 0;
R118: +x60 >= 0;
+x14 +x16 +x19 >= 0;
R120: +x4 >= 0;
R121: +x4 >= 0;
R122: +x15 >= 0;
R123: +x24 >= 0;
R124: +x24 >= 0;
R125: +x17 >= 0;
R126: +x18 >= 0;
R127: +x18 >= 0;
+x13 +x22 +x26 +x59 +x61 >= 0;
R129: +x27 >= 0;
+x13 +x14 +x22 >= 0;
R131: +x17 >= 0;
R132: +x27 >= 0;
R133: +x1 >= 0;
R134: +x2 >= 0;
R135: +x28 >= 0;
R136: +x29 >= 0;
+x13 +x22 +x26 +x59 +x61 >= 0;
R138: +x12 >= 0;
R139: +x60 >= 0;
R140: +x30 >= 0;
R141: +x10 >= 0;
R142: +x21 >= 0;
R143: +x11 >= 0;
R144: +x21 >= 0;
R145: +x11 >= 0;
R146: +x45 >= 0;
R147: +x45 >= 0;
0 x1 >= 1;
0 x1 >= 1;
R150: +x25 >= 0;
R151: +x57 >= 0;
R152: +x25 >= 0;
R153: +x57 >= 0;
R154: +x20 >= 0;
R155: +x20 >= 0;
R156: +x1 >= 0;
R157: +x2 >= 0;
R158: +x3 >= 0;
R159: +x4 >= 0;
R160: +x5 >= 0;
R161: +x6 >= 0;
R162: +x7 >= 0;
R163: +x8 >= 0;
R164: +x9 >= 0;
R165: +x10 >= 0;
R166: +x11 >= 0;
R167: +x12 >= 0;
R168: +x13 >= 0;
R169: +x14 >= 0;
R170: +x15 >= 0;
R171: +x16 >= 0;
R172: +x17 >= 0;
R173: +x18 >= 0;
R174: +x19 >= 0;
R175: +x20 >= 0;
R176: +x21 >= 0;
R177: +x22 >= 0;
R178: +x23 >= 0;
R179: +x24 >= 0;
R180: +x25 >= 0;
R181: +x26 >= 0;
R182: +x27 >= 0;
R183: +x28 >= 0;
R184: +x29 >= 0;
R185: +x30 >= 0;
R186: +x31 >= 0;
R187: +x32 >= 0;
R188: +x33 >= 0;
R189: +x34 >= 0;
R190: +x35 >= 0;
R191: +x36 >= 0;
R192: +x37 >= 0;
R193: +x38 >= 0;
R194: +x39 >= 0;
R195: +x40 >= 0;
R196: +x41 >= 0;
R197: +x42 >= 0;
R198: +x43 >= 0;
R199: +x44 >= 0;
R200: +x45 >= 0;
R201: +x46 >= 0;
R202: +x47 >= 0;
R203: +x48 >= 0;
R204: +x49 >= 0;
R205: +x50 >= 0;
R206: +x51 >= 0;
R207: +x52 >= 0;
R208: +x53 >= 0;
R209: +x54 >= 0;
R210: +x55 >= 0;
R211: +x56 >= 0;
R212: +x57 >= 0;
R213: +x58 >= 0;
R214: +x59 >= 0;
R215: +x60 >= 0;
R216: +x61 >= 0;
